Minimize
  obj: -1.0000000000000000e+00 x1
Subject To
 C0 : -3.0000000000000000e+00 x0 - 2.0000000000000000e+00 x1 >= -6.0000000000000000e+00
 C1 : 3.0000000000000000e+00 x0 - 2.0000000000000000e+00 x1 >= -0.0000000000000000e+00
 C2 : 1.0000000000000000e+00 x1 >= -0.0000000000000000e+00
 C3 : -1.0000000000000000e+00 x1 >= -1.0000000000000000e+00
 C4 : 1.0000000000000000e+00 x0 - 1.0000000000000000e+00 x1 >= -0.0000000000000000e+00
Bounds
  x0 free
  x1 free
End
